17 57 47 37 88 44 43 19 25 35 96 16 69 91 11 24 3 55 20 80 4 15 29 21 34 76 68 6 51 2 12 60 36 33 49 85 97 93 1 45 53 72 84 90 18 23 38 13 63 71 26 40 83 66 61 95 50 48 98 10 27 86 30 82 78 65 31 28 32 39 74 14 42 64 89 81 41 59 56 75 58 73 67 94 9 77 87 7 54 8 22 46 0 62 79 52 70 5 92 99